1 1 -2 0
1 1 3 0
1 1 -4 0
1 5 -3 0
1 5 -1 0
1 -5 -6 0
1 -7 -8 0
1 -7 3 0
1 -9 2 0
1 9 -3 0
1 9 10 0
1 -9 -7 0
1 3 11 0
1 -3 -12 0
1 3 9 0
1 -3 13 0
1 -3 -14 0
1 15 -5 0
1 -15 -16 0
1 -15 7 0
1 -15 1 0
1 2 -11 0
1 -2 -17 0
1 2 -9 0
1 -2 -5 0
1 -2 -18 0
1 2 -19 0
1 2 7 0
1 -2 -1 0
1 6 5 0
1 6 2 0
1 -6 20 0
1 -6 -19 0
1 6 1 0
1 -14 3 0
1 -14 10 0
1 14 19 0
1 -14 -15 0
1 -12 -8 0
1 -12 21 0
1 12 -22 0
1 12 -3 0
1 -12 -10 0
1 -12 23 0
1 -12 -15 0
1 -16 -24 0
1 16 -3 0
1 -16 -10 0
1 16 -23 0
1 -16 25 0
1 -26 -17 0
1 -26 16 0
1 26 25 0
1 26 -27 0
1 23 28 0
1 23 21 0
1 -23 29 0
1 23 14 0
1 -23 -7 0
1 21 -30 0
1 -21 12 0
1 21 9 0
1 -21 -29 0
1 -10 26 0
1 10 31 0
1 10 32 0
1 10 -16 0
1 -10 -33 0
1 -8 34 0
1 -8 11 0
1 8 12 0
1 8 -9 0
1 -8 -7 0
1 8 33 0
1 -35 24 0
1 -35 36 0
1 -35 -20 0
1 -37 -21 0
1 -37 -24 0
1 37 -35 0
1 37 25 0
1 37 27 0
1 29 -24 0
1 29 -23 0
1 -28 38 0
1 28 -36 0
1 -28 29 0
1 28 23 0
1 -28 -25 0
1 28 27 0
1 27 -39 0
1 27 40 0
1 36 29 0
1 36 -16 0
1 -25 28 0
1 25 24 0
1 -25 -29 0
1 25 35 0
1 25 -16 0
1 25 -41 0
1 -25 42 0
1 -24 28 0
1 24 26 0
1 24 43 0
1 -24 -44 0
1 -24 -29 0
1 -24 -16 0
1 24 -25 0
1 4 45 0
1 -4 -46 0
1 4 47 0
1 4 -48 0
1 -46 -49 0
1 -46 50 0
1 -51 52 0
1 51 -47 0
1 -51 -53 0
1 -51 7 0
1 54 45 0
1 54 55 0
1 -54 -9 0
1 54 -47 0
1 -54 53 0
1 -54 56 0
1 -54 51 0
1 45 54 0
1 45 47 0
1 45 -57 0
1 -45 -58 0
1 47 17 0
1 -47 22 0
1 -47 54 0
1 47 -46 0
1 47 -59 0
1 -47 58 0
1 -47 -4 0
1 -49 -60 0
1 49 -54 0
1 49 46 0
1 49 61 0
1 49 -4 0
1 -52 62 0
1 -52 -54 0
1 -52 63 0
1 52 -57 0
1 52 64 0
1 52 -61 0
1 52 -51 0
1 -52 4 0
1 -19 55 0
1 -19 65 0
1 19 -47 0
1 -19 6 0
1 -22 -45 0
1 22 -12 0
1 22 -60 0
1 22 -2 0
1 22 -47 0
1 22 -56 0
1 -58 45 0
1 58 66 0
1 58 -47 0
1 -58 -53 0
1 -58 -16 0
1 -58 56 0
1 58 -6 0
1 17 45 0
1 -17 65 0
1 -17 -58 0
1 65 -56 0
1 -65 -17 0
1 -65 22 0
1 65 67 0
1 -65 20 0
1 56 -11 0
1 -56 -54 0
1 56 31 0
1 -56 68 0
1 -55 69 0
1 -55 62 0
1 -55 22 0
1 55 19 0
1 53 55 0
1 -53 70 0
1 -53 -19 0
1 20 66 0
1 -20 -3 0
1 20 -10 0
1 -20 -57 0
1 -20 -6 0
1 -11 8 0
1 -11 62 0
1 11 65 0
1 -11 20 0
1 -11 15 0
1 -31 -71 0
1 31 -8 0
1 31 66 0
1 31 72 0
1 -31 -56 0
1 31 73 0
1 38 66 0
1 -38 13 0
1 -38 31 0
1 38 -56 0
1 38 74 0
1 -38 73 0
1 75 38 0
1 75 -17 0
1 -75 -76 0
1 -75 77 0
1 -75 58 0
1 -75 -42 0
1 -75 33 0
1 -78 79 0
1 -66 -38 0
1 -66 11 0
1 66 76 0
1 66 -20 0
1 66 -58 0
1 -66 79 0
1 -66 80 0
1 -74 -81 0
1 -74 11 0
1 -74 -17 0
1 74 82 0
1 74 70 0
1 -74 31 0
1 -74 -83 0
1 77 21 0
1 77 -75 0
1 -77 -10 0
1 -77 -23 0
1 -77 25 0
1 -77 -78 0
1 33 81 0
1 33 -75 0
1 -33 77 0
1 33 -78 0
1 -44 71 0
1 44 18 0
1 44 -13 0
1 44 42 0
1 44 73 0
1 42 -18 0
1 42 13 0
1 -42 -32 0
1 42 -84 0
1 42 25 0
1 -42 -73 0
1 -42 -80 0
1 13 85 0
1 13 -86 0
1 -13 31 0
1 13 -87 0
1 -13 40 0
1 13 33 0
1 71 88 0
1 71 44 0
1 -71 -15 0
1 18 85 0
1 18 -89 0
1 18 87 0
1 73 44 0
1 73 -6 0
1 73 -79 0
1 88 -71 0
1 88 -34 0
1 -88 -30 0
1 88 -13 0
1 -88 -25 0
1 88 -27 0
1 40 30 0
1 -40 24 0
1 40 -36 0
1 -40 -32 0
1 40 -84 0
1 -90 43 0
1 -90 91 0
1 90 -92 0
1 -90 -84 0
1 84 -93 0
1 -84 30 0
1 84 94 0
1 -84 90 0
1 84 -44 0
1 -84 95 0
1 84 -91 0
1 84 40 0
1 -30 -21 0
1 -30 -96 0
1 30 -95 0
1 30 -91 0
1 32 93 0
1 -32 -10 0
1 32 -40 0
1 -34 8 0
1 -34 44 0
1 -34 96 0
1 34 -97 0
1 34 -87 0
1 -34 40 0
1 98 -43 0
1 98 -99 0
1 99 -87 0
1 94 -100 0
1 -94 -101 0
1 94 84 0
1 -94 -39 0
1 95 -43 0
1 -95 97 0
1 39 102 0
1 -39 94 0
1 39 95 0
1 -39 103 0
1 -101 102 0
1 -101 -94 0
1 -101 98 0
1 -101 -104 0
1 101 90 0
1 -101 105 0
1 -101 91 0
1 -41 -102 0
1 -41 106 0
1 41 94 0
1 -41 96 0
1 -41 -25 0
1 41 99 0
1 -41 -107 0
1 -43 106 0
1 -43 24 0
1 43 -94 0
1 -43 98 0
1 -43 108 0
1 43 -99 0
1 43 91 0
1 -48 -50 0
1 48 109 0
1 50 110 0
1 50 -111 0
1 -112 113 0
1 112 -114 0
1 -112 109 0
1 112 -115 0
1 -114 116 0
1 -114 -117 0
1 114 -118 0
1 -114 -112 0
1 115 119 0
1 115 111 0
1 -115 114 0
1 111 119 0
1 -111 -120 0
1 -111 -50 0
1 -109 -114 0
1 109 -112 0
1 110 121 0
1 110 114 0
1 -110 -50 0
1 -110 112 0
1 110 -48 0
1 -61 116 0
1 61 52 0
1 61 -115 0
1 60 -111 0
1 -60 22 0
1 60 118 0
1 60 -61 0
1 64 -119 0
1 64 116 0
1 64 122 0
1 64 123 0
1 64 115 0
1 64 -118 0
1 -119 -124 0
1 119 17 0
1 119 -123 0
1 -119 117 0
1 -119 -125 0
1 -117 -69 0
1 -117 -119 0
1 -117 57 0
1 117 64 0
1 -117 112 0
1 -117 -126 0
1 116 -127 0
1 -116 57 0
1 118 119 0
1 118 -114 0
1 118 -64 0
1 -118 -112 0
1 113 -127 0
1 113 119 0
1 113 114 0
1 -113 64 0
1 -113 -61 0
1 113 112 0
1 -57 -49 0
1 57 -116 0
1 -57 -122 0
1 57 -52 0
1 57 47 0
1 -62 55 0
1 62 122 0
1 -62 123 0
1 -62 52 0
1 62 -117 0
1 72 -69 0
1 -72 -128 0
1 -72 129 0
1 -72 -55 0
1 -72 123 0
1 69 -38 0
1 69 129 0
1 69 -55 0
1 69 122 0
1 69 63 0
1 69 72 0
1 69 117 0
1 -69 125 0
1 124 81 0
1 -124 62 0
1 -124 57 0
1 -124 130 0
1 -123 -69 0
1 -123 -72 0
1 123 -130 0
1 123 80 0
1 -125 69 0
1 -125 122 0
1 125 57 0
1 -125 130 0
1 122 127 0
1 -122 -131 0
1 122 132 0
1 122 72 0
1 122 -57 0
1 -122 125 0
1 -70 81 0
1 -70 -128 0
1 -70 129 0
1 -70 -65 0
1 70 -59 0
1 70 53 0
1 70 56 0
1 81 -66 0
1 81 -123 0
1 81 59 0
1 -82 -133 0
1 -82 -67 0
1 -82 66 0
1 -82 -44 0
1 82 63 0
1 82 134 0
1 82 74 0
1 80 82 0
1 -80 134 0
1 80 -42 0
1 -129 69 0
1 129 45 0
1 -129 -135 0
1 129 -76 0
1 129 -72 0
1 -129 79 0
1 -129 -80 0
1 -59 82 0
1 59 -70 0
1 -59 -72 0
1 59 79 0
1 -128 136 0
1 -128 -82 0
1 -128 -72 0
1 -128 137 0
1 128 -130 0
1 -63 69 0
1 -63 128 0
1 63 138 0
1 63 139 0
1 -63 131 0
1 -63 -70 0
1 -63 52 0
1 -63 140 0
1 -63 -72 0
1 63 -141 0
1 -63 -137 0
1 63 -130 0
1 -63 80 0
1 76 67 0
1 76 -66 0
1 76 -75 0
1 -76 68 0
1 76 -74 0
1 -79 -133 0
1 79 75 0
1 79 68 0
1 -79 -74 0
1 79 -40 0
1 92 -83 0
1 92 134 0
1 -92 68 0
1 92 -142 0
1 92 -143 0
1 -142 -133 0
1 142 -144 0
1 142 -91 0
1 142 -143 0
1 67 68 0
1 -67 145 0
1 -67 -76 0
1 67 97 0
1 -67 -142 0
1 -67 -80 0
1 68 146 0
1 68 -100 0
1 -68 67 0
1 68 92 0
1 -68 -97 0
1 -68 56 0
1 -68 87 0
1 -68 -147 0
1 -68 79 0
1 -133 -55 0
1 133 -148 0
1 -133 138 0
1 -133 -92 0
1 -133 76 0
1 -133 -141 0
1 133 142 0
1 -133 -79 0
1 -134 -138 0
1 134 92 0
1 -134 -76 0
1 134 -149 0
1 134 -141 0
1 134 -142 0
1 -134 79 0
1 -134 -80 0
1 -85 34 0
1 85 -98 0
1 85 138 0
1 85 144 0
1 85 13 0
1 -85 73 0
1 -87 -67 0
1 87 32 0
1 -87 99 0
1 -87 141 0
1 -87 -83 0
1 87 -73 0
1 100 67 0
1 -100 97 0
1 -100 143 0
1 100 -150 0
1 97 -151 0
1 -97 -34 0
1 97 152 0
1 97 89 0
1 -97 -32 0
1 97 153 0
1 97 -68 0
1 -97 143 0
1 152 106 0
1 152 -100 0
1 152 -85 0
1 -152 154 0
1 -152 155 0
1 -152 -108 0
1 143 -156 0
1 -143 106 0
1 143 100 0
1 143 85 0
1 143 -96 0
1 143 -87 0
1 143 142 0
1 -144 -100 0
1 -144 -149 0
1 144 97 0
1 -144 -87 0
1 144 142 0
1 -83 156 0
1 83 -100 0
1 -83 85 0
1 83 -144 0
1 -83 -87 0
1 83 -74 0
1 -83 -142 0
1 -93 151 0
1 93 -30 0
1 93 -146 0
1 -93 43 0
1 93 96 0
1 -93 32 0
1 -93 -41 0
1 -93 150 0
1 -96 43 0
1 -96 152 0
1 96 -84 0
1 -96 41 0
1 -96 -143 0
1 -106 157 0
1 -106 43 0
1 106 89 0
1 106 -158 0
1 106 159 0
1 -108 151 0
1 108 106 0
1 -108 157 0
1 -108 43 0
1 -108 -152 0
1 -108 -89 0
1 108 160 0
1 -108 86 0
1 -108 158 0
1 -108 41 0
1 108 143 0
1 -108 -150 0
1 -86 -102 0
1 -86 -106 0
1 -86 -93 0
1 86 96 0
1 -86 161 0
1 151 71 0
1 151 -106 0
1 151 108 0
1 -151 96 0
1 -151 -162 0
1 -151 -161 0
1 -89 -156 0
1 89 18 0
1 -89 -97 0
1 -89 -150 0
1 150 -156 0
1 -150 -93 0
1 -150 -163 0
1 -150 155 0
1 150 -108 0
1 150 89 0
1 150 96 0
1 -150 -97 0
1 150 -162 0
1 -150 164 0
1 -102 156 0
1 102 -157 0
1 102 101 0
1 -102 -86 0
1 -102 -158 0
1 -102 159 0
1 102 -41 0
1 -105 102 0
1 -105 -165 0
1 105 43 0
1 -105 -159 0
1 -161 -165 0
1 -161 -104 0
1 -161 -166 0
1 -161 158 0
1 161 -159 0
1 -166 -151 0
1 166 165 0
1 166 167 0
1 -159 157 0
1 -159 84 0
1 159 -168 0
1 -157 106 0
1 157 169 0
1 157 170 0
1 -157 -166 0
1 157 -159 0
1 157 161 0
1 -158 106 0
1 158 -165 0
1 -158 -171 0
1 -158 172 0
1 -158 -162 0
1 -165 -102 0
1 165 106 0
1 -165 34 0
1 165 171 0
1 -165 166 0
1 165 105 0
1 -165 108 0
1 -165 -161 0
1 -173 159 0
1 -170 -157 0
1 170 -159 0
1 -170 -107 0
1 168 157 0
1 -168 -167 0
1 -168 -104 0
1 168 -159 0
1 -168 -107 0
1 168 103 0
1 -169 103 0
1 169 157 0
1 -169 -159 0
1 -169 107 0
1 103 104 0
1 -103 170 0
1 103 -166 0
1 -103 -39 0
1 103 -168 0
1 103 -161 0
1 104 -168 0
1 -107 167 0
1 167 43 0
1 167 107 0
1 -167 168 0
1 -174 127 0
1 -174 116 0
1 174 -122 0
1 -174 -70 0
1 174 175 0
1 174 -125 0
1 127 121 0
1 -127 120 0
1 127 -116 0
1 -127 176 0
1 127 118 0
1 -177 -121 0
1 -177 178 0
1 177 126 0
1 177 125 0
1 -179 -122 0
1 -179 175 0
1 -179 -180 0
1 179 126 0
1 -179 -125 0
1 179 80 0
1 -176 131 0
1 -176 181 0
1 -176 -137 0
1 -176 -130 0
1 -176 -179 0
1 -120 127 0
1 120 174 0
1 -120 176 0
1 -120 -137 0
1 120 -130 0
1 175 127 0
1 175 -109 0
1 -175 179 0
1 121 174 0
1 131 -120 0
1 131 -178 0
1 131 76 0
1 -131 -123 0
1 131 -126 0
1 -130 -123 0
1 -130 -63 0
1 -130 180 0
1 -130 79 0
1 -130 -126 0
1 139 -128 0
1 -139 120 0
1 139 -92 0
1 139 132 0
1 139 -182 0
1 -137 -183 0
1 137 -178 0
1 -137 -184 0
1 -137 176 0
1 137 142 0
1 -137 180 0
1 -137 -182 0
1 126 178 0
1 -126 177 0
1 126 117 0
1 -178 148 0
1 178 116 0
1 -178 131 0
1 178 177 0
1 -178 -141 0
1 -178 -137 0
1 -178 -126 0
1 -178 130 0
1 -180 -185 0
1 180 -118 0
1 180 -186 0
1 -180 -137 0
1 180 -187 0
1 -180 130 0
1 -183 -185 0
1 -183 113 0
1 -138 128 0
1 138 133 0
1 -138 -132 0
1 138 -63 0
1 -138 -141 0
1 138 126 0
1 138 182 0
1 -141 -188 0
1 -141 -128 0
1 141 -129 0
1 141 -178 0
1 141 -184 0
1 -141 182 0
1 -148 135 0
1 -148 100 0
1 148 -132 0
1 -148 -189 0
1 -148 182 0
1 153 188 0
1 -153 -135 0
1 -153 -132 0
1 153 -184 0
1 -153 -189 0
1 153 -97 0
1 153 -126 0
1 -188 -190 0
1 -188 191 0
1 188 -146 0
1 188 148 0
1 188 139 0
1 -188 192 0
1 188 153 0
1 -184 188 0
1 -184 190 0
1 -184 139 0
1 -184 123 0
1 -184 -192 0
1 -184 193 0
1 -184 -153 0
1 184 -141 0
1 182 194 0
1 -182 -195 0
1 -182 132 0
1 -182 192 0
1 -182 -196 0
1 182 -186 0
1 -182 153 0
1 132 -195 0
1 132 -197 0
1 132 -196 0
1 132 153 0
1 146 -135 0
1 -146 -67 0
1 -146 -144 0
1 146 184 0
1 -149 188 0
1 149 -136 0
1 -149 -135 0
1 -149 -133 0
1 149 -184 0
1 149 -186 0
1 -149 189 0
1 -191 -135 0
1 191 198 0
1 -191 -184 0
1 191 147 0
1 -191 83 0
1 -160 -188 0
1 -160 191 0
1 160 -135 0
1 160 -145 0
1 160 144 0
1 160 189 0
1 135 -156 0
1 -135 -146 0
1 -135 129 0
1 135 199 0
1 -135 -160 0
1 135 149 0
1 -135 189 0
1 135 153 0
1 189 191 0
1 189 200 0
1 -189 -155 0
1 189 59 0
1 -189 -164 0
1 136 201 0
1 -136 -190 0
1 136 191 0
1 136 192 0
1 -140 190 0
1 140 -191 0
1 -140 -148 0
1 -140 -192 0
1 -140 -149 0
1 -140 153 0
1 156 145 0
1 -156 152 0
1 156 202 0
1 156 -83 0
1 156 143 0
1 156 -150 0
1 155 -135 0
1 155 152 0
1 -155 105 0
1 155 -89 0
1 155 192 0
1 -155 147 0
1 -164 201 0
1 -164 -135 0
1 -164 198 0
1 164 145 0
1 164 -189 0
1 -164 -202 0
1 164 -203 0
1 164 161 0
1 -199 135 0
1 -199 145 0
1 -199 -204 0
1 199 154 0
1 199 -189 0
1 -199 -202 0
1 199 205 0
1 145 -156 0
1 145 -147 0
1 -145 160 0
1 -145 162 0
1 -147 -68 0
1 147 -172 0
1 147 162 0
1 147 164 0
1 -198 -133 0
1 198 200 0
1 198 199 0
1 198 -160 0
1 -198 202 0
1 -198 206 0
1 -198 -164 0
1 202 -206 0
1 202 -164 0
1 -162 165 0
1 163 145 0
1 -163 89 0
1 -163 86 0
1 -163 -203 0
1 -163 -147 0
1 -163 205 0
1 -172 145 0
1 172 204 0
1 172 147 0
1 172 168 0
1 172 -205 0
1 171 -145 0
1 -171 154 0
1 -171 158 0
1 -171 147 0
1 -154 -203 0
1 154 172 0
1 -154 164 0
1 -203 199 0
1 203 -154 0
1 -203 164 0
1 -204 199 0
1 -204 -172 0
1 204 -162 0
1 -205 -163 0
1 205 199 0
1 -205 172 0
1 205 164 0
1 -185 146 0
1 185 207 0
1 185 -132 0
1 185 208 0
1 185 180 0
1 186 209 0
1 186 -183 0
1 -186 -178 0
1 186 208 0
1 -186 -181 0
1 186 -180 0
1 186 126 0
1 186 -182 0
1 -195 207 0
1 -195 -209 0
1 -195 -187 0
1 -196 -195 0
1 196 -207 0
1 -196 -209 0
1 -196 -210 0
1 196 160 0
1 196 211 0
1 -196 -182 0
1 -181 190 0
1 -181 -195 0
1 181 -192 0
1 181 196 0
1 181 -186 0
1 209 -201 0
1 209 -185 0
1 -209 -212 0
1 209 -196 0
1 -208 -195 0
1 -208 -207 0
1 208 -196 0
1 -208 -186 0
1 208 175 0
1 207 208 0
1 190 156 0
1 190 132 0
1 -190 -192 0
1 -190 181 0
1 190 187 0
1 -192 188 0
1 192 190 0
1 -192 -213 0
1 -192 155 0
1 -192 -181 0
1 -192 -211 0
1 201 211 0
1 212 194 0
1 212 209 0
1 212 197 0
1 212 140 0
1 212 -181 0
1 212 -211 0
1 -211 -214 0
1 -211 212 0
1 -211 -206 0
1 211 126 0
1 210 201 0
1 -210 200 0
1 -210 -192 0
1 210 196 0
1 -187 -201 0
1 187 -190 0
1 187 195 0
1 187 -212 0
1 187 192 0
1 -187 -196 0
1 213 -190 0
1 -213 192 0
1 213 196 0
1 200 163 0
1 -200 210 0
1 200 193 0
1 -200 -211 0
1 -206 -215 0
1 206 -214 0
1 206 -197 0
1 206 202 0
1 206 -211 0
1 214 -194 0
1 -214 -198 0
1 214 171 0
1 -214 -210 0
1 -214 -206 0
1 -214 211 0
1 -215 -201 0
1 -215 -212 0
1 -215 193 0
1 -215 206 0
1 193 -215 0
1 193 212 0
1 193 -184 0
1 194 -214 0
1 197 -132 0
1 197 212 0
